c
c /Users/conrad/Desktop/projet_binero/output/quattro.dimacs
c
p cnf 147 753
1 0 
-17 1 2 0 
-18 1 2 0 
17 -1 -2 0 
17 -1 -2 0 
-17 -1 2 0 
-17 1 -2 0 
18 -1 2 0 
18 1 -2 0 
-17 18 0 
-19 3 4 0 
-20 3 4 0 
19 -3 -4 0 
19 -3 -4 0 
-19 -3 4 0 
-19 3 -4 0 
20 -3 4 0 
20 3 -4 0 
-19 20 0 
-29 25 26 0 
-30 25 26 0 
29 -25 -26 0 
29 -25 -26 0 
-29 -25 26 0 
-29 25 -26 0 
30 -25 26 0 
30 25 -26 0 
-29 30 0 
-31 27 28 0 
-32 27 28 0 
31 -27 -28 0 
31 -27 -28 0 
-31 -27 28 0 
-31 27 -28 0 
32 -27 28 0 
32 27 -28 0 
-31 32 0 
21 -17 0 
-21 17 0 
24 -20 0 
-24 20 0 
-26 22 23 0 
-27 22 23 0 
26 -22 -23 0 
26 -22 -23 0 
-26 -22 23 0 
-26 22 -23 0 
27 -22 23 0 
27 22 -23 0 
-26 27 0 
29 -25 0 
-29 25 0 
32 -28 0 
-32 28 0 
-34 30 31 0 
-35 30 31 0 
34 -30 -31 0 
34 -30 -31 0 
-34 -30 31 0 
-34 30 -31 0 
35 -30 31 0 
35 30 -31 0 
-34 35 0 
-29 0 
-30 0 
31 0 
32 0 
-33 5 6 0 
-34 5 6 0 
33 -5 -6 0 
33 -5 -6 0 
-33 -5 6 0 
-33 5 -6 0 
34 -5 6 0 
34 5 -6 0 
-33 34 0 
-35 7 8 0 
-36 7 8 0 
35 -7 -8 0 
35 -7 -8 0 
-35 -7 8 0 
-35 7 -8 0 
36 -7 8 0 
36 7 -8 0 
-35 36 0 
-45 41 42 0 
-46 41 42 0 
45 -41 -42 0 
45 -41 -42 0 
-45 -41 42 0 
-45 41 -42 0 
46 -41 42 0 
46 41 -42 0 
-45 46 0 
-47 43 44 0 
-48 43 44 0 
47 -43 -44 0 
47 -43 -44 0 
-47 -43 44 0 
-47 43 -44 0 
48 -43 44 0 
48 43 -44 0 
-47 48 0 
37 -33 0 
-37 33 0 
40 -36 0 
-40 36 0 
-42 38 39 0 
-43 38 39 0 
42 -38 -39 0 
42 -38 -39 0 
-42 -38 39 0 
-42 38 -39 0 
43 -38 39 0 
43 38 -39 0 
-42 43 0 
45 -41 0 
-45 41 0 
48 -44 0 
-48 44 0 
-50 46 47 0 
-51 46 47 0 
50 -46 -47 0 
50 -46 -47 0 
-50 -46 47 0 
-50 46 -47 0 
51 -46 47 0 
51 46 -47 0 
-50 51 0 
-45 0 
-46 0 
47 0 
48 0 
-49 9 10 0 
-50 9 10 0 
49 -9 -10 0 
49 -9 -10 0 
-49 -9 10 0 
-49 9 -10 0 
50 -9 10 0 
50 9 -10 0 
-49 50 0 
-51 11 12 0 
-52 11 12 0 
51 -11 -12 0 
51 -11 -12 0 
-51 -11 12 0 
-51 11 -12 0 
52 -11 12 0 
52 11 -12 0 
-51 52 0 
-61 57 58 0 
-62 57 58 0 
61 -57 -58 0 
61 -57 -58 0 
-61 -57 58 0 
-61 57 -58 0 
62 -57 58 0 
62 57 -58 0 
-61 62 0 
-63 59 60 0 
-64 59 60 0 
63 -59 -60 0 
63 -59 -60 0 
-63 -59 60 0 
-63 59 -60 0 
64 -59 60 0 
64 59 -60 0 
-63 64 0 
53 -49 0 
-53 49 0 
56 -52 0 
-56 52 0 
-58 54 55 0 
-59 54 55 0 
58 -54 -55 0 
58 -54 -55 0 
-58 -54 55 0 
-58 54 -55 0 
59 -54 55 0 
59 54 -55 0 
-58 59 0 
61 -57 0 
-61 57 0 
64 -60 0 
-64 60 0 
-66 62 63 0 
-67 62 63 0 
66 -62 -63 0 
66 -62 -63 0 
-66 -62 63 0 
-66 62 -63 0 
67 -62 63 0 
67 62 -63 0 
-66 67 0 
-61 0 
-62 0 
63 0 
64 0 
-65 13 14 0 
-66 13 14 0 
65 -13 -14 0 
65 -13 -14 0 
-65 -13 14 0 
-65 13 -14 0 
66 -13 14 0 
66 13 -14 0 
-65 66 0 
-67 15 16 0 
-68 15 16 0 
67 -15 -16 0 
67 -15 -16 0 
-67 -15 16 0 
-67 15 -16 0 
68 -15 16 0 
68 15 -16 0 
-67 68 0 
-77 73 74 0 
-78 73 74 0 
77 -73 -74 0 
77 -73 -74 0 
-77 -73 74 0 
-77 73 -74 0 
78 -73 74 0 
78 73 -74 0 
-77 78 0 
-79 75 76 0 
-80 75 76 0 
79 -75 -76 0 
79 -75 -76 0 
-79 -75 76 0 
-79 75 -76 0 
80 -75 76 0 
80 75 -76 0 
-79 80 0 
69 -65 0 
-69 65 0 
72 -68 0 
-72 68 0 
-74 70 71 0 
-75 70 71 0 
74 -70 -71 0 
74 -70 -71 0 
-74 -70 71 0 
-74 70 -71 0 
75 -70 71 0 
75 70 -71 0 
-74 75 0 
77 -73 0 
-77 73 0 
80 -76 0 
-80 76 0 
-82 78 79 0 
-83 78 79 0 
82 -78 -79 0 
82 -78 -79 0 
-82 -78 79 0 
-82 78 -79 0 
83 -78 79 0 
83 78 -79 0 
-82 83 0 
-77 0 
-78 0 
79 0 
80 0 
-81 1 5 0 
-82 1 5 0 
81 -1 -5 0 
81 -1 -5 0 
-81 -1 5 0 
-81 1 -5 0 
82 -1 5 0 
82 1 -5 0 
-81 82 0 
-83 9 13 0 
-84 9 13 0 
83 -9 -13 0 
83 -9 -13 0 
-83 -9 13 0 
-83 9 -13 0 
84 -9 13 0 
84 9 -13 0 
-83 84 0 
-93 89 90 0 
-94 89 90 0 
93 -89 -90 0 
93 -89 -90 0 
-93 -89 90 0 
-93 89 -90 0 
94 -89 90 0 
94 89 -90 0 
-93 94 0 
-95 91 92 0 
-96 91 92 0 
95 -91 -92 0 
95 -91 -92 0 
-95 -91 92 0 
-95 91 -92 0 
96 -91 92 0 
96 91 -92 0 
-95 96 0 
85 -81 0 
-85 81 0 
88 -84 0 
-88 84 0 
-90 86 87 0 
-91 86 87 0 
90 -86 -87 0 
90 -86 -87 0 
-90 -86 87 0 
-90 86 -87 0 
91 -86 87 0 
91 86 -87 0 
-90 91 0 
93 -89 0 
-93 89 0 
96 -92 0 
-96 92 0 
-98 94 95 0 
-99 94 95 0 
98 -94 -95 0 
98 -94 -95 0 
-98 -94 95 0 
-98 94 -95 0 
99 -94 95 0 
99 94 -95 0 
-98 99 0 
-93 0 
-94 0 
95 0 
96 0 
-97 2 6 0 
-98 2 6 0 
97 -2 -6 0 
97 -2 -6 0 
-97 -2 6 0 
-97 2 -6 0 
98 -2 6 0 
98 2 -6 0 
-97 98 0 
-99 10 14 0 
-100 10 14 0 
99 -10 -14 0 
99 -10 -14 0 
-99 -10 14 0 
-99 10 -14 0 
100 -10 14 0 
100 10 -14 0 
-99 100 0 
-109 105 106 0 
-110 105 106 0 
109 -105 -106 0 
109 -105 -106 0 
-109 -105 106 0 
-109 105 -106 0 
110 -105 106 0 
110 105 -106 0 
-109 110 0 
-111 107 108 0 
-112 107 108 0 
111 -107 -108 0 
111 -107 -108 0 
-111 -107 108 0 
-111 107 -108 0 
112 -107 108 0 
112 107 -108 0 
-111 112 0 
101 -97 0 
-101 97 0 
104 -100 0 
-104 100 0 
-106 102 103 0 
-107 102 103 0 
106 -102 -103 0 
106 -102 -103 0 
-106 -102 103 0 
-106 102 -103 0 
107 -102 103 0 
107 102 -103 0 
-106 107 0 
109 -105 0 
-109 105 0 
112 -108 0 
-112 108 0 
-114 110 111 0 
-115 110 111 0 
114 -110 -111 0 
114 -110 -111 0 
-114 -110 111 0 
-114 110 -111 0 
115 -110 111 0 
115 110 -111 0 
-114 115 0 
-109 0 
-110 0 
111 0 
112 0 
-113 3 7 0 
-114 3 7 0 
113 -3 -7 0 
113 -3 -7 0 
-113 -3 7 0 
-113 3 -7 0 
114 -3 7 0 
114 3 -7 0 
-113 114 0 
-115 11 15 0 
-116 11 15 0 
115 -11 -15 0 
115 -11 -15 0 
-115 -11 15 0 
-115 11 -15 0 
116 -11 15 0 
116 11 -15 0 
-115 116 0 
-125 121 122 0 
-126 121 122 0 
125 -121 -122 0 
125 -121 -122 0 
-125 -121 122 0 
-125 121 -122 0 
126 -121 122 0 
126 121 -122 0 
-125 126 0 
-127 123 124 0 
-128 123 124 0 
127 -123 -124 0 
127 -123 -124 0 
-127 -123 124 0 
-127 123 -124 0 
128 -123 124 0 
128 123 -124 0 
-127 128 0 
117 -113 0 
-117 113 0 
120 -116 0 
-120 116 0 
-122 118 119 0 
-123 118 119 0 
122 -118 -119 0 
122 -118 -119 0 
-122 -118 119 0 
-122 118 -119 0 
123 -118 119 0 
123 118 -119 0 
-122 123 0 
125 -121 0 
-125 121 0 
128 -124 0 
-128 124 0 
-130 126 127 0 
-131 126 127 0 
130 -126 -127 0 
130 -126 -127 0 
-130 -126 127 0 
-130 126 -127 0 
131 -126 127 0 
131 126 -127 0 
-130 131 0 
-125 0 
-126 0 
127 0 
128 0 
-129 4 8 0 
-130 4 8 0 
129 -4 -8 0 
129 -4 -8 0 
-129 -4 8 0 
-129 4 -8 0 
130 -4 8 0 
130 4 -8 0 
-129 130 0 
-131 12 16 0 
-132 12 16 0 
131 -12 -16 0 
131 -12 -16 0 
-131 -12 16 0 
-131 12 -16 0 
132 -12 16 0 
132 12 -16 0 
-131 132 0 
-141 137 138 0 
-142 137 138 0 
141 -137 -138 0 
141 -137 -138 0 
-141 -137 138 0 
-141 137 -138 0 
142 -137 138 0 
142 137 -138 0 
-141 142 0 
-143 139 140 0 
-144 139 140 0 
143 -139 -140 0 
143 -139 -140 0 
-143 -139 140 0 
-143 139 -140 0 
144 -139 140 0 
144 139 -140 0 
-143 144 0 
133 -129 0 
-133 129 0 
136 -132 0 
-136 132 0 
-138 134 135 0 
-139 134 135 0 
138 -134 -135 0 
138 -134 -135 0 
-138 -134 135 0 
-138 134 -135 0 
139 -134 135 0 
139 134 -135 0 
-138 139 0 
141 -137 0 
-141 137 0 
144 -140 0 
-144 140 0 
-146 142 143 0 
-147 142 143 0 
146 -142 -143 0 
146 -142 -143 0 
-146 -142 143 0 
-146 142 -143 0 
147 -142 143 0 
147 142 -143 0 
-146 147 0 
-141 0 
-142 0 
143 0 
144 0 
1 2 3 0 
-1 -2 -3 0 
2 3 4 0 
-2 -3 -4 0 
5 6 7 0 
-5 -6 -7 0 
6 7 8 0 
-6 -7 -8 0 
9 10 11 0 
-9 -10 -11 0 
10 11 12 0 
-10 -11 -12 0 
13 14 15 0 
-13 -14 -15 0 
14 15 16 0 
-14 -15 -16 0 
1 5 5 0 
-1 -5 -9 0 
2 6 6 0 
-2 -6 -10 0 
5 9 9 0 
-5 -9 -13 0 
6 10 10 0 
-6 -10 -14 0 
9 13 13 0 
-9 -13 -17 0 
10 14 14 0 
-10 -14 -18 0 
13 17 17 0 
-13 -17 -21 0 
14 18 18 0 
-14 -18 -22 0 
-1 -5 -2 -6 -3 -7 -4 -8 0 
-1 -5 -2 -6 -3 -7 4 8 0 
-1 -5 -2 -6 3 7 -4 -8 0 
-1 -5 -2 -6 3 7 4 8 0 
-1 -5 2 6 -3 -7 -4 -8 0 
-1 -5 2 6 -3 -7 4 8 0 
-1 -5 2 6 3 7 -4 -8 0 
-1 -5 2 6 3 7 4 8 0 
1 5 -2 -6 -3 -7 -4 -8 0 
1 5 -2 -6 -3 -7 4 8 0 
1 5 -2 -6 3 7 -4 -8 0 
1 5 -2 -6 3 7 4 8 0 
1 5 2 6 -3 -7 -4 -8 0 
1 5 2 6 -3 -7 4 8 0 
1 5 2 6 3 7 -4 -8 0 
1 5 2 6 3 7 4 8 0 
-1 -9 -2 -10 -3 -11 -4 -12 0 
-1 -9 -2 -10 -3 -11 4 12 0 
-1 -9 -2 -10 3 11 -4 -12 0 
-1 -9 -2 -10 3 11 4 12 0 
-1 -9 2 10 -3 -11 -4 -12 0 
-1 -9 2 10 -3 -11 4 12 0 
-1 -9 2 10 3 11 -4 -12 0 
-1 -9 2 10 3 11 4 12 0 
1 9 -2 -10 -3 -11 -4 -12 0 
1 9 -2 -10 -3 -11 4 12 0 
1 9 -2 -10 3 11 -4 -12 0 
1 9 -2 -10 3 11 4 12 0 
1 9 2 10 -3 -11 -4 -12 0 
1 9 2 10 -3 -11 4 12 0 
1 9 2 10 3 11 -4 -12 0 
1 9 2 10 3 11 4 12 0 
-1 -13 -2 -14 -3 -15 -4 -16 0 
-1 -13 -2 -14 -3 -15 4 16 0 
-1 -13 -2 -14 3 15 -4 -16 0 
-1 -13 -2 -14 3 15 4 16 0 
-1 -13 2 14 -3 -15 -4 -16 0 
-1 -13 2 14 -3 -15 4 16 0 
-1 -13 2 14 3 15 -4 -16 0 
-1 -13 2 14 3 15 4 16 0 
1 13 -2 -14 -3 -15 -4 -16 0 
1 13 -2 -14 -3 -15 4 16 0 
1 13 -2 -14 3 15 -4 -16 0 
1 13 -2 -14 3 15 4 16 0 
1 13 2 14 -3 -15 -4 -16 0 
1 13 2 14 -3 -15 4 16 0 
1 13 2 14 3 15 -4 -16 0 
1 13 2 14 3 15 4 16 0 
-5 -9 -6 -10 -7 -11 -8 -12 0 
-5 -9 -6 -10 -7 -11 8 12 0 
-5 -9 -6 -10 7 11 -8 -12 0 
-5 -9 -6 -10 7 11 8 12 0 
-5 -9 6 10 -7 -11 -8 -12 0 
-5 -9 6 10 -7 -11 8 12 0 
-5 -9 6 10 7 11 -8 -12 0 
-5 -9 6 10 7 11 8 12 0 
5 9 -6 -10 -7 -11 -8 -12 0 
5 9 -6 -10 -7 -11 8 12 0 
5 9 -6 -10 7 11 -8 -12 0 
5 9 -6 -10 7 11 8 12 0 
5 9 6 10 -7 -11 -8 -12 0 
5 9 6 10 -7 -11 8 12 0 
5 9 6 10 7 11 -8 -12 0 
5 9 6 10 7 11 8 12 0 
-5 -13 -6 -14 -7 -15 -8 -16 0 
-5 -13 -6 -14 -7 -15 8 16 0 
-5 -13 -6 -14 7 15 -8 -16 0 
-5 -13 -6 -14 7 15 8 16 0 
-5 -13 6 14 -7 -15 -8 -16 0 
-5 -13 6 14 -7 -15 8 16 0 
-5 -13 6 14 7 15 -8 -16 0 
-5 -13 6 14 7 15 8 16 0 
5 13 -6 -14 -7 -15 -8 -16 0 
5 13 -6 -14 -7 -15 8 16 0 
5 13 -6 -14 7 15 -8 -16 0 
5 13 -6 -14 7 15 8 16 0 
5 13 6 14 -7 -15 -8 -16 0 
5 13 6 14 -7 -15 8 16 0 
5 13 6 14 7 15 -8 -16 0 
5 13 6 14 7 15 8 16 0 
-9 -13 -10 -14 -11 -15 -12 -16 0 
-9 -13 -10 -14 -11 -15 12 16 0 
-9 -13 -10 -14 11 15 -12 -16 0 
-9 -13 -10 -14 11 15 12 16 0 
-9 -13 10 14 -11 -15 -12 -16 0 
-9 -13 10 14 -11 -15 12 16 0 
-9 -13 10 14 11 15 -12 -16 0 
-9 -13 10 14 11 15 12 16 0 
9 13 -10 -14 -11 -15 -12 -16 0 
9 13 -10 -14 -11 -15 12 16 0 
9 13 -10 -14 11 15 -12 -16 0 
9 13 -10 -14 11 15 12 16 0 
9 13 10 14 -11 -15 -12 -16 0 
9 13 10 14 -11 -15 12 16 0 
9 13 10 14 11 15 -12 -16 0 
9 13 10 14 11 15 12 16 0 
-1 -2 -5 -6 -9 -10 -13 -14 0 
-1 -2 -5 -6 -9 -10 13 14 0 
-1 -2 -5 -6 9 10 -13 -14 0 
-1 -2 -5 -6 9 10 13 14 0 
-1 -2 5 6 -9 -10 -13 -14 0 
-1 -2 5 6 -9 -10 13 14 0 
-1 -2 5 6 9 10 -13 -14 0 
-1 -2 5 6 9 10 13 14 0 
1 2 -5 -6 -9 -10 -13 -14 0 
1 2 -5 -6 -9 -10 13 14 0 
1 2 -5 -6 9 10 -13 -14 0 
1 2 -5 -6 9 10 13 14 0 
1 2 5 6 -9 -10 -13 -14 0 
1 2 5 6 -9 -10 13 14 0 
1 2 5 6 9 10 -13 -14 0 
1 2 5 6 9 10 13 14 0 
-1 -3 -5 -7 -9 -11 -13 -15 0 
-1 -3 -5 -7 -9 -11 13 15 0 
-1 -3 -5 -7 9 11 -13 -15 0 
-1 -3 -5 -7 9 11 13 15 0 
-1 -3 5 7 -9 -11 -13 -15 0 
-1 -3 5 7 -9 -11 13 15 0 
-1 -3 5 7 9 11 -13 -15 0 
-1 -3 5 7 9 11 13 15 0 
1 3 -5 -7 -9 -11 -13 -15 0 
1 3 -5 -7 -9 -11 13 15 0 
1 3 -5 -7 9 11 -13 -15 0 
1 3 -5 -7 9 11 13 15 0 
1 3 5 7 -9 -11 -13 -15 0 
1 3 5 7 -9 -11 13 15 0 
1 3 5 7 9 11 -13 -15 0 
1 3 5 7 9 11 13 15 0 
-1 -4 -5 -8 -9 -12 -13 -16 0 
-1 -4 -5 -8 -9 -12 13 16 0 
-1 -4 -5 -8 9 12 -13 -16 0 
-1 -4 -5 -8 9 12 13 16 0 
-1 -4 5 8 -9 -12 -13 -16 0 
-1 -4 5 8 -9 -12 13 16 0 
-1 -4 5 8 9 12 -13 -16 0 
-1 -4 5 8 9 12 13 16 0 
1 4 -5 -8 -9 -12 -13 -16 0 
1 4 -5 -8 -9 -12 13 16 0 
1 4 -5 -8 9 12 -13 -16 0 
1 4 -5 -8 9 12 13 16 0 
1 4 5 8 -9 -12 -13 -16 0 
1 4 5 8 -9 -12 13 16 0 
1 4 5 8 9 12 -13 -16 0 
1 4 5 8 9 12 13 16 0 
-2 -3 -6 -7 -10 -11 -14 -15 0 
-2 -3 -6 -7 -10 -11 14 15 0 
-2 -3 -6 -7 10 11 -14 -15 0 
-2 -3 -6 -7 10 11 14 15 0 
-2 -3 6 7 -10 -11 -14 -15 0 
-2 -3 6 7 -10 -11 14 15 0 
-2 -3 6 7 10 11 -14 -15 0 
-2 -3 6 7 10 11 14 15 0 
2 3 -6 -7 -10 -11 -14 -15 0 
2 3 -6 -7 -10 -11 14 15 0 
2 3 -6 -7 10 11 -14 -15 0 
2 3 -6 -7 10 11 14 15 0 
2 3 6 7 -10 -11 -14 -15 0 
2 3 6 7 -10 -11 14 15 0 
2 3 6 7 10 11 -14 -15 0 
2 3 6 7 10 11 14 15 0 
-2 -4 -6 -8 -10 -12 -14 -16 0 
-2 -4 -6 -8 -10 -12 14 16 0 
-2 -4 -6 -8 10 12 -14 -16 0 
-2 -4 -6 -8 10 12 14 16 0 
-2 -4 6 8 -10 -12 -14 -16 0 
-2 -4 6 8 -10 -12 14 16 0 
-2 -4 6 8 10 12 -14 -16 0 
-2 -4 6 8 10 12 14 16 0 
2 4 -6 -8 -10 -12 -14 -16 0 
2 4 -6 -8 -10 -12 14 16 0 
2 4 -6 -8 10 12 -14 -16 0 
2 4 -6 -8 10 12 14 16 0 
2 4 6 8 -10 -12 -14 -16 0 
2 4 6 8 -10 -12 14 16 0 
2 4 6 8 10 12 -14 -16 0 
2 4 6 8 10 12 14 16 0 
-3 -4 -7 -8 -11 -12 -15 -16 0 
-3 -4 -7 -8 -11 -12 15 16 0 
-3 -4 -7 -8 11 12 -15 -16 0 
-3 -4 -7 -8 11 12 15 16 0 
-3 -4 7 8 -11 -12 -15 -16 0 
-3 -4 7 8 -11 -12 15 16 0 
-3 -4 7 8 11 12 -15 -16 0 
-3 -4 7 8 11 12 15 16 0 
3 4 -7 -8 -11 -12 -15 -16 0 
3 4 -7 -8 -11 -12 15 16 0 
3 4 -7 -8 11 12 -15 -16 0 
3 4 -7 -8 11 12 15 16 0 
3 4 7 8 -11 -12 -15 -16 0 
3 4 7 8 -11 -12 15 16 0 
3 4 7 8 11 12 -15 -16 0 
3 4 7 8 11 12 15 16 0 
